(set-logic QF_S)
(declare-fun var0 () String)
(declare-fun var1 () String)
(declare-fun var2 () String)
(declare-fun var3 () String)
(declare-fun var4 () Int)
(declare-fun var5 () Int)
(declare-fun var6 () Int)
(declare-fun var7 () Int)
(assert (str.suffixof (str.replace var0 var1 var2) (str.substr var3 var4 var5)))
(assert (str.prefixof (str.substr var1 var6 var7) (str.replace var3 var3 var0)))
(assert (not (> var4 var6)))
(assert (not (str.prefixof var1 var2)))
(check-sat)